% Generated FlatZinc statistics:
%%%mzn-stat: paths=0
%%%mzn-stat: flatBoolVars=981
%%%mzn-stat: flatIntVars=159
%%%mzn-stat: flatBoolConstraints=369
%%%mzn-stat: flatIntConstraints=1122
%%%mzn-stat: evaluatedReifiedConstraints=982
%%%mzn-stat: eliminatedLinearConstraints=1
%%%mzn-stat: method="minimize"
%%%mzn-stat: flatTime=0.0932302
%%%mzn-stat-end
WARNING: the --time-out flag has recently been changed.The time-out is now provided in milliseconds instead of seconds
% Pruned 49999 learnt clauses
% Pruned 49998 learnt clauses
% Pruned 49999 learnt clauses
% Pruned 49998 learnt clauses
% Pruned 49997 learnt clauses
% Pruned 49997 learnt clauses
% Pruned 49996 learnt clauses
% Pruned 49994 learnt clauses
% Pruned 50000 learnt clauses
% Pruned 50000 learnt clauses
% Pruned 50000 learnt clauses
% Pruned 49998 learnt clauses
% Pruned 49995 learnt clauses
% Pruned 49995 learnt clauses
% Pruned 49997 learnt clauses
% Pruned 49999 learnt clauses
% Pruned 50000 learnt clauses
% Pruned 49987 learnt clauses
% Pruned 49997 learnt clauses
% Pruned 49995 learnt clauses
% Pruned 49996 learnt clauses
% Pruned 49995 learnt clauses
% Pruned 49994 learnt clauses
% Pruned 49995 learnt clauses
% Pruned 49994 learnt clauses
% Pruned 49992 learnt clauses
% Pruned 50000 learnt clauses
%%%mzn-stat: nodes=1516066
%%%mzn-stat: failures=1448738
%%%mzn-stat: restarts=150
%%%mzn-stat: variables=15584
%%%mzn-stat: intVars=211
%%%mzn-stat: boolVariables=15371
%%%mzn-stat: propagators=2146
%%%mzn-stat: propagations=598863248
%%%mzn-stat: peakDepth=249
%%%mzn-stat: nogoods=1448738
%%%mzn-stat: backjumps=59145
%%%mzn-stat: peakMem=0.00
%%%mzn-stat: time=59.916
%%%mzn-stat: initTime=0.010
%%%mzn-stat: solveTime=59.906
%%%mzn-stat: objective=5461
%%%mzn-stat: optTime=56.949
%%%mzn-stat: baseMem=0.00
%%%mzn-stat: trailMem=0.19
%%%mzn-stat: randomSeed=1
%%%mzn-stat-end
end = 45
carga_por_operario = [35, 33, 33, 19]
desbalance = 16
Job 1:   0(op:1)   1(op:2)   9(op:3)  11(op:3)  18(op:3)
Job 2:  21(op:3)  26(op:4)  30(op:1)  37(op:4)  38(op:3)
Job 3:   1(op:3)   5(op:2)  13(op:1)  20(op:4)  26(op:3)
Job 4:  12(op:4)  20(op:1)  27(op:1)  38(op:1)  41(op:3)
Job 5:   4(op:1)  15(op:2)  21(op:2)  28(op:2)  32(op:2)
----------
% Time limit exceeded!
%%%mzn-stat: nSolutions=1
%%%mzn-stat-end
